NAME : rc101.1059323.tour
COMMENT : Cost = 0_1059323
COMMENT : Found by LKH [Keld Helsgaun] Thu Sep 14 11:29:04 2017
TYPE : TOUR
DIMENSION : 110
TOUR_SECTION
1
11
12
14
16
17
18
48
15
13
54
99
102
84
78
26
24
22
49
19
20
50
21
107
70
89
61
79
74
80
8
7
101
56
110
87
75
59
76
98
60
88
10
83
103
68
35
32
30
28
27
29
31
33
34
51
109
3
9
47
5
46
6
4
2
71
69
108
92
57
85
52
77
90
64
86
63
96
93
104
97
55
42
40
39
73
72
94
95
81
105
67
65
23
25
58
53
100
66
91
106
62
43
45
44
41
37
36
38
82
-1
EOF
